p cnf 252 570
1 2 3 0
-55 0
-1 56 0
-2 56 0
-1 -2 57 0
-3 58 0
-55 58 0
-3 -55 59 0
-56 60 0
-58 60 0
-56 -58 61 0
-57 62 0
-59 62 0
-57 -59 63 0
-61 64 0
-62 64 0
-61 -62 65 0
-64 0
19 20 21 0
-66 0
-19 67 0
-20 67 0
-19 -20 68 0
-21 69 0
-66 69 0
-21 -66 70 0
-67 71 0
-69 71 0
-67 -69 72 0
-68 73 0
-70 73 0
-68 -70 74 0
-72 75 0
-73 75 0
-72 -73 76 0
-75 0
37 38 39 0
-77 0
-37 78 0
-38 78 0
-37 -38 79 0
-39 80 0
-77 80 0
-39 -77 81 0
-78 82 0
-80 82 0
-78 -80 83 0
-79 84 0
-81 84 0
-79 -81 85 0
-83 86 0
-84 86 0
-83 -84 87 0
-86 0
4 5 6 0
-88 0
-4 89 0
-5 89 0
-4 -5 90 0
-6 91 0
-88 91 0
-6 -88 92 0
-89 93 0
-91 93 0
-89 -91 94 0
-90 95 0
-92 95 0
-90 -92 96 0
-94 97 0
-95 97 0
-94 -95 98 0
-97 0
22 23 24 0
-99 0
-22 100 0
-23 100 0
-22 -23 101 0
-24 102 0
-99 102 0
-24 -99 103 0
-100 104 0
-102 104 0
-100 -102 105 0
-101 106 0
-103 106 0
-101 -103 107 0
-105 108 0
-106 108 0
-105 -106 109 0
-108 0
40 41 42 0
-110 0
-40 111 0
-41 111 0
-40 -41 112 0
-42 113 0
-110 113 0
-42 -110 114 0
-111 115 0
-113 115 0
-111 -113 116 0
-112 117 0
-114 117 0
-112 -114 118 0
-116 119 0
-117 119 0
-116 -117 120 0
-119 0
7 8 9 0
-121 0
-7 122 0
-8 122 0
-7 -8 123 0
-9 124 0
-121 124 0
-9 -121 125 0
-122 126 0
-124 126 0
-122 -124 127 0
-123 128 0
-125 128 0
-123 -125 129 0
-127 130 0
-128 130 0
-127 -128 131 0
-130 0
25 26 27 0
-132 0
-25 133 0
-26 133 0
-25 -26 134 0
-27 135 0
-132 135 0
-27 -132 136 0
-133 137 0
-135 137 0
-133 -135 138 0
-134 139 0
-136 139 0
-134 -136 140 0
-138 141 0
-139 141 0
-138 -139 142 0
-141 0
43 44 45 0
-143 0
-43 144 0
-44 144 0
-43 -44 145 0
-45 146 0
-143 146 0
-45 -143 147 0
-144 148 0
-146 148 0
-144 -146 149 0
-145 150 0
-147 150 0
-145 -147 151 0
-149 152 0
-150 152 0
-149 -150 153 0
-152 0
10 11 12 0
-154 0
-10 155 0
-11 155 0
-10 -11 156 0
-12 157 0
-154 157 0
-12 -154 158 0
-155 159 0
-157 159 0
-155 -157 160 0
-156 161 0
-158 161 0
-156 -158 162 0
-160 163 0
-161 163 0
-160 -161 164 0
-163 0
28 29 30 0
-165 0
-28 166 0
-29 166 0
-28 -29 167 0
-30 168 0
-165 168 0
-30 -165 169 0
-166 170 0
-168 170 0
-166 -168 171 0
-167 172 0
-169 172 0
-167 -169 173 0
-171 174 0
-172 174 0
-171 -172 175 0
-174 0
46 47 48 0
-176 0
-46 177 0
-47 177 0
-46 -47 178 0
-48 179 0
-176 179 0
-48 -176 180 0
-177 181 0
-179 181 0
-177 -179 182 0
-178 183 0
-180 183 0
-178 -180 184 0
-182 185 0
-183 185 0
-182 -183 186 0
-185 0
13 14 15 0
-187 0
-13 188 0
-14 188 0
-13 -14 189 0
-15 190 0
-187 190 0
-15 -187 191 0
-188 192 0
-190 192 0
-188 -190 193 0
-189 194 0
-191 194 0
-189 -191 195 0
-193 196 0
-194 196 0
-193 -194 197 0
-196 0
31 32 33 0
-198 0
-31 199 0
-32 199 0
-31 -32 200 0
-33 201 0
-198 201 0
-33 -198 202 0
-199 203 0
-201 203 0
-199 -201 204 0
-200 205 0
-202 205 0
-200 -202 206 0
-204 207 0
-205 207 0
-204 -205 208 0
-207 0
49 50 51 0
-209 0
-49 210 0
-50 210 0
-49 -50 211 0
-51 212 0
-209 212 0
-51 -209 213 0
-210 214 0
-212 214 0
-210 -212 215 0
-211 216 0
-213 216 0
-211 -213 217 0
-215 218 0
-216 218 0
-215 -216 219 0
-218 0
16 17 18 0
-220 0
-16 221 0
-17 221 0
-16 -17 222 0
-18 223 0
-220 223 0
-18 -220 224 0
-221 225 0
-223 225 0
-221 -223 226 0
-222 227 0
-224 227 0
-222 -224 228 0
-226 229 0
-227 229 0
-226 -227 230 0
-229 0
34 35 36 0
-231 0
-34 232 0
-35 232 0
-34 -35 233 0
-36 234 0
-231 234 0
-36 -231 235 0
-232 236 0
-234 236 0
-232 -234 237 0
-233 238 0
-235 238 0
-233 -235 239 0
-237 240 0
-238 240 0
-237 -238 241 0
-240 0
52 53 54 0
-242 0
-52 243 0
-53 243 0
-52 -53 244 0
-54 245 0
-242 245 0
-54 -242 246 0
-243 247 0
-245 247 0
-243 -245 248 0
-244 249 0
-246 249 0
-244 -246 250 0
-248 251 0
-249 251 0
-248 -249 252 0
-251 0
-1 -19 -37 5 0
-1 -20 -37 5 0
-1 -21 -37 5 0
-1 -19 -38 5 0
-1 -20 -38 5 0
-1 -21 -38 5 0
-1 -19 -39 5 0
-1 -20 -39 5 0
-1 -21 -39 5 0
-2 -19 -37 5 0
-2 -20 -37 5 0
-2 -21 -37 5 0
-2 -19 -38 5 0
-2 -20 -38 6 0
-2 -21 -38 6 0
-2 -19 -39 5 0
-2 -20 -39 6 0
-2 -21 -39 6 0
-3 -19 -37 5 0
-3 -20 -37 5 0
-3 -21 -37 5 0
-3 -19 -38 5 0
-3 -20 -38 6 0
-3 -21 -38 6 0
-3 -19 -39 5 0
-3 -20 -39 6 0
-3 -21 -39 4 0
-19 -1 23 0
-19 -2 23 0
-19 -3 23 0
-20 -1 23 0
-20 -2 24 0
-20 -3 24 0
-21 -1 23 0
-21 -2 24 0
-21 -3 22 0
-37 -1 41 0
-37 -2 41 0
-37 -3 41 0
-38 -1 41 0
-38 -2 42 0
-38 -3 42 0
-39 -1 41 0
-39 -2 42 0
-39 -3 40 0
-4 -22 -40 8 0
-4 -23 -40 8 0
-4 -24 -40 8 0
-4 -22 -41 8 0
-4 -23 -41 8 0
-4 -24 -41 8 0
-4 -22 -42 8 0
-4 -23 -42 8 0
-4 -24 -42 8 0
-5 -22 -40 8 0
-5 -23 -40 8 0
-5 -24 -40 8 0
-5 -22 -41 8 0
-5 -23 -41 9 0
-5 -24 -41 9 0
-5 -22 -42 8 0
-5 -23 -42 9 0
-5 -24 -42 9 0
-6 -22 -40 8 0
-6 -23 -40 8 0
-6 -24 -40 8 0
-6 -22 -41 8 0
-6 -23 -41 9 0
-6 -24 -41 9 0
-6 -22 -42 8 0
-6 -23 -42 9 0
-6 -24 -42 7 0
-22 -4 26 0
-22 -5 26 0
-22 -6 26 0
-23 -4 26 0
-23 -5 27 0
-23 -6 27 0
-24 -4 26 0
-24 -5 27 0
-24 -6 25 0
-40 -4 44 0
-40 -5 44 0
-40 -6 44 0
-41 -4 44 0
-41 -5 45 0
-41 -6 45 0
-42 -4 44 0
-42 -5 45 0
-42 -6 43 0
-7 -25 -43 11 0
-7 -26 -43 11 0
-7 -27 -43 11 0
-7 -25 -44 11 0
-7 -26 -44 11 0
-7 -27 -44 11 0
-7 -25 -45 11 0
-7 -26 -45 11 0
-7 -27 -45 11 0
-8 -25 -43 11 0
-8 -26 -43 11 0
-8 -27 -43 11 0
-8 -25 -44 11 0
-8 -26 -44 12 0
-8 -27 -44 12 0
-8 -25 -45 11 0
-8 -26 -45 12 0
-8 -27 -45 12 0
-9 -25 -43 11 0
-9 -26 -43 11 0
-9 -27 -43 11 0
-9 -25 -44 11 0
-9 -26 -44 12 0
-9 -27 -44 12 0
-9 -25 -45 11 0
-9 -26 -45 12 0
-9 -27 -45 10 0
-25 -7 29 0
-25 -8 29 0
-25 -9 29 0
-26 -7 29 0
-26 -8 30 0
-26 -9 30 0
-27 -7 29 0
-27 -8 30 0
-27 -9 28 0
-43 -7 47 0
-43 -8 47 0
-43 -9 47 0
-44 -7 47 0
-44 -8 48 0
-44 -9 48 0
-45 -7 47 0
-45 -8 48 0
-45 -9 46 0
-10 -28 -46 14 0
-10 -29 -46 14 0
-10 -30 -46 14 0
-10 -28 -47 14 0
-10 -29 -47 14 0
-10 -30 -47 14 0
-10 -28 -48 14 0
-10 -29 -48 14 0
-10 -30 -48 14 0
-11 -28 -46 14 0
-11 -29 -46 14 0
-11 -30 -46 14 0
-11 -28 -47 14 0
-11 -29 -47 15 0
-11 -30 -47 15 0
-11 -28 -48 14 0
-11 -29 -48 15 0
-11 -30 -48 15 0
-12 -28 -46 14 0
-12 -29 -46 14 0
-12 -30 -46 14 0
-12 -28 -47 14 0
-12 -29 -47 15 0
-12 -30 -47 15 0
-12 -28 -48 14 0
-12 -29 -48 15 0
-12 -30 -48 13 0
-28 -10 32 0
-28 -11 32 0
-28 -12 32 0
-29 -10 32 0
-29 -11 33 0
-29 -12 33 0
-30 -10 32 0
-30 -11 33 0
-30 -12 31 0
-46 -10 50 0
-46 -11 50 0
-46 -12 50 0
-47 -10 50 0
-47 -11 51 0
-47 -12 51 0
-48 -10 50 0
-48 -11 51 0
-48 -12 49 0
-13 -31 -49 17 0
-13 -32 -49 17 0
-13 -33 -49 17 0
-13 -31 -50 17 0
-13 -32 -50 17 0
-13 -33 -50 17 0
-13 -31 -51 17 0
-13 -32 -51 17 0
-13 -33 -51 17 0
-14 -31 -49 17 0
-14 -32 -49 17 0
-14 -33 -49 17 0
-14 -31 -50 17 0
-14 -32 -50 18 0
-14 -33 -50 18 0
-14 -31 -51 17 0
-14 -32 -51 18 0
-14 -33 -51 18 0
-15 -31 -49 17 0
-15 -32 -49 17 0
-15 -33 -49 17 0
-15 -31 -50 17 0
-15 -32 -50 18 0
-15 -33 -50 18 0
-15 -31 -51 17 0
-15 -32 -51 18 0
-15 -33 -51 16 0
-31 -13 35 0
-31 -14 35 0
-31 -15 35 0
-32 -13 35 0
-32 -14 36 0
-32 -15 36 0
-33 -13 35 0
-33 -14 36 0
-33 -15 34 0
-49 -13 53 0
-49 -14 53 0
-49 -15 53 0
-50 -13 53 0
-50 -14 54 0
-50 -15 54 0
-51 -13 53 0
-51 -14 54 0
-51 -15 52 0
-16 -34 -52 0
-17 -35 -53 0
-18 -36 -54 0
-1 -19 -37 0
-2 -20 -38 0
-3 -21 -39 0
-4 -22 -40 0
-5 -23 -41 0
-6 -24 -42 0
-7 -25 -43 0
-8 -26 -44 0
-9 -27 -45 0
-10 -28 -46 0
-11 -29 -47 0
-12 -30 -48 0
-13 -31 -49 0
-14 -32 -50 0
-15 -33 -51 0
-19 -38 0
-19 -39 0
-20 -39 0
